139
1184
103
0 65
0 76
1 4
1 15
1 18
1 19
1 22
1 23
1 24
1 57
1 69
1 73
2 3
2 5
2 12
2 13
2 14
2 20
2 28
2 66
2 68
2 71
2 87
2 89
2 134
2 136
3 5
3 12
3 13
3 14
3 20
3 28
3 136
4 15
4 18
4 19
4 22
4 23
4 24
4 30
4 38
4 47
4 49
4 51
4 54
4 57
4 69
4 73
4 87
4 89
4 91
4 92
4 93
5 12
5 13
5 14
5 20
5 28
5 34
5 53
5 54
5 59
5 61
5 67
5 70
5 72
5 74
5 75
5 81
5 84
5 119
5 120
5 121
5 123
5 126
5 128
5 136
6 12
6 13
6 14
6 25
6 28
7 15
7 27
7 95
7 107
8 9
8 10
8 11
8 17
8 21
8 85
9 10
9 11
9 17
9 21
9 29
9 30
9 85
9 98
9 99
9 113
9 133
10 11
10 17
10 21
10 29
10 30
10 37
10 46
10 85
10 88
10 90
10 98
10 99
10 113
10 114
10 133
11 17
11 21
11 29
11 30
11 37
11 46
11 56
11 57
11 59
11 61
11 85
11 88
11 90
11 98
11 99
11 113
11 114
11 133
12 13
12 14
12 20
12 25
12 28
12 136
13 14
13 20
13 25
13 28
13 59
13 61
13 67
13 70
13 72
13 74
13 75
13 136
14 20
14 25
14 28
14 59
14 61
14 67
14 70
14 72
14 74
14 75
14 78
14 79
14 82
14 83
14 110
14 111
14 122
14 136
14 137
14 138
15 18
15 19
15 22
15 23
15 24
15 27
15 30
15 38
15 47
15 49
15 51
15 54
15 69
15 73
15 95
15 107
16 17
16 21
16 85
16 119
17 21
17 85
17 119
18 19
18 22
18 23
18 24
18 43
18 45
18 46
18 69
18 73
18 79
18 81
18 82
18 86
18 88
18 90
18 97
18 109
18 110
18 114
19 22
19 23
19 24
19 69
19 73
20 28
20 42
20 66
20 68
20 71
20 87
20 89
20 129
20 134
20 136
21 29
21 30
21 37
21 46
21 85
21 88
21 90
21 98
21 99
21 113
21 114
21 119
21 133
22 23
22 24
22 30
22 38
22 47
22 49
22 51
22 54
22 69
22 73
22 87
22 89
22 91
22 92
22 93
23 24
23 30
23 38
23 47
23 49
23 51
23 54
23 69
23 73
24 33
24 40
24 41
24 44
24 48
24 50
24 52
24 53
24 55
24 63
24 69
24 73
24 118
24 134
24 135
24 138
25 26
25 27
25 28
25 66
25 95
25 107
26 27
26 28
26 66
26 95
26 107
27 28
27 66
27 95
27 107
28 66
28 95
28 107
28 136
29 30
29 37
29 46
29 56
29 57
29 59
29 61
29 88
29 90
29 98
29 99
29 113
29 114
29 133
30 36
30 38
30 40
30 41
30 47
30 49
30 51
30 54
30 63
30 73
30 87
30 89
30 91
30 92
30 93
30 98
30 99
30 113
30 133
31 32
31 33
31 34
31 35
31 39
31 53
31 60
31 62
31 94
31 101
31 102
31 105
31 110
31 111
31 115
31 137
32 33
32 34
32 35
32 39
32 60
32 62
32 94
32 101
32 102
33 34
33 35
33 39
33 52
33 60
33 62
33 97
33 100
33 103
33 104
33 118
33 134
33 135
33 138
34 35
34 39
34 53
34 54
34 60
34 62
34 81
34 84
34 94
34 101
34 102
34 105
34 110
34 111
34 115
34 137
35 39
35 60
35 62
35 97
35 100
35 103
35 104
36 38
36 40
36 41
36 63
36 99
36 133
37 46
37 88
37 90
37 113
37 114
38 40
38 41
38 47
38 49
38 51
38 54
38 63
38 73
38 99
38 133
39 43
39 58
39 60
39 62
39 66
39 79
39 86
39 97
40 41
40 44
40 48
40 50
40 52
40 53
40 55
40 63
40 99
40 103
40 126
40 133
40 137
41 44
41 48
41 50
41 52
41 53
41 55
41 63
41 99
41 133
42 67
42 77
42 78
42 85
42 106
42 119
42 129
42 130
42 136
43 45
43 46
43 58
43 60
43 62
43 66
43 79
43 81
43 82
43 86
43 88
43 90
43 97
43 109
43 110
43 114
44 48
44 50
44 52
44 53
44 55
44 63
44 80
44 95
44 96
44 98
44 99
44 107
44 108
44 113
44 117
44 120
44 123
44 131
44 133
45 46
45 79
45 81
45 82
45 86
45 88
45 90
45 97
45 109
45 110
45 114
46 79
46 81
46 82
46 86
46 88
46 90
46 97
46 109
46 110
46 113
46 114
47 49
47 51
47 54
47 73
48 50
48 52
48 53
48 55
48 63
48 117
48 120
48 123
48 131
48 133
49 51
49 54
49 61
49 73
49 74
49 75
49 77
49 80
49 87
49 89
49 91
49 92
49 93
49 107
49 108
49 113
49 116
49 124
49 125
49 127
50 52
50 53
50 55
50 63
50 103
50 126
50 137
51 54
51 61
51 73
51 74
51 75
51 77
51 80
51 87
51 89
51 91
51 92
51 93
51 124
51 125
51 127
52 53
52 55
52 63
52 118
52 134
52 135
52 138
53 54
53 55
53 63
53 81
53 84
53 94
53 101
53 103
53 105
53 110
53 111
53 115
53 126
53 137
54 73
54 81
54 84
54 87
54 89
54 91
54 92
54 93
54 119
54 120
54 121
54 123
54 126
54 128
55 63
56 57
56 59
56 61
56 64
56 65
56 69
56 73
56 76
56 90
56 94
56 105
57 59
57 61
57 64
57 65
57 69
57 73
57 76
57 90
57 94
57 105
58 60
58 62
58 63
58 66
58 68
58 79
58 86
58 87
58 97
59 61
59 67
59 70
59 72
59 74
59 75
59 90
60 62
60 63
60 66
60 68
60 79
60 86
60 87
60 97
61 67
61 70
61 72
61 74
61 75
61 77
61 80
61 90
61 93
61 124
61 125
61 127
62 63
62 66
62 68
62 79
62 86
62 87
62 97
62 100
62 103
62 104
63 66
63 68
63 87
63 99
63 133
64 65
64 69
64 73
64 76
64 94
64 105
65 69
65 73
65 76
65 94
65 105
66 68
66 71
66 79
66 86
66 87
66 89
66 95
66 97
66 107
66 134
67 70
67 72
67 74
67 75
67 77
67 78
67 79
67 82
67 83
67 85
67 86
67 88
67 90
67 106
67 110
67 111
67 119
67 122
67 129
67 130
67 136
67 137
67 138
68 71
68 87
68 89
68 134
69 73
69 76
69 94
69 105
70 72
70 74
70 75
70 78
70 79
70 82
70 83
70 85
70 86
70 88
70 90
70 110
70 111
70 122
70 137
70 138
71 87
71 89
71 134
72 74
72 75
72 78
72 79
72 82
72 83
72 110
72 111
72 122
72 137
72 138
73 76
73 94
73 105
74 75
74 77
74 80
74 93
74 107
74 108
74 113
74 116
74 124
74 125
74 127
75 77
75 80
75 93
75 124
75 125
75 127
76 87
76 89
76 91
76 94
76 101
76 105
76 134
76 135
77 78
77 80
77 81
77 85
77 93
77 97
77 100
77 106
77 109
77 112
77 114
77 117
77 118
77 119
77 121
77 124
77 125
77 127
77 129
77 130
77 132
77 136
78 79
78 82
78 83
78 85
78 86
78 88
78 90
78 106
78 110
78 111
78 119
78 122
78 129
78 130
78 136
78 137
78 138
79 81
79 82
79 83
79 85
79 86
79 88
79 90
79 97
79 109
79 110
79 111
79 114
79 122
79 137
79 138
80 93
80 95
80 96
80 98
80 99
80 107
80 108
80 113
80 116
80 120
80 124
80 125
80 127
80 131
80 133
81 82
81 84
81 86
81 88
81 90
81 97
81 100
81 106
81 109
81 110
81 112
81 114
81 119
81 120
81 121
81 123
81 126
81 128
81 129
81 130
81 132
81 136
82 83
82 85
82 86
82 88
82 90
82 97
82 109
82 110
82 111
82 114
82 122
82 137
82 138
83 110
83 111
83 122
83 137
83 138
85 86
85 88
85 90
85 106
85 110
85 111
85 119
85 122
85 129
85 130
85 136
86 88
86 90
86 97
86 109
86 110
86 111
86 114
86 122
87 89
87 91
87 92
87 93
87 94
87 101
87 105
87 134
87 135
88 90
88 97
88 109
88 110
88 111
88 113
88 114
88 122
89 91
89 92
89 93
89 94
89 101
89 105
89 134
89 135
90 97
90 109
90 110
90 111
90 113
90 114
90 122
91 92
91 93
91 94
91 101
91 105
91 134
91 135
92 93
93 124
93 125
93 127
94 101
94 102
94 105
94 110
94 111
94 115
94 134
94 135
94 137
95 96
95 98
95 99
95 107
95 108
95 113
95 120
95 131
95 133
96 98
96 99
96 107
96 108
96 113
96 120
96 131
96 133
97 100
97 103
97 104
97 106
97 109
97 110
97 112
97 114
97 119
97 121
97 129
97 130
97 132
97 136
98 99
98 107
98 108
98 113
98 120
98 131
98 133
99 107
99 108
99 113
99 120
99 131
99 133
100 103
100 104
100 106
100 109
100 112
100 114
100 119
100 121
100 129
100 130
100 132
100 136
101 102
101 105
101 110
101 111
101 115
101 134
101 135
101 137
103 104
103 126
103 137
105 110
105 111
105 115
105 134
105 135
105 137
106 109
106 112
106 114
106 117
106 118
106 119
106 121
106 127
106 129
106 130
106 132
106 136
107 108
107 113
107 116
107 120
107 124
107 131
107 133
108 113
108 116
108 120
108 124
108 131
108 133
109 110
109 112
109 114
109 117
109 118
109 119
109 121
109 127
109 129
109 130
109 132
109 136
110 111
110 114
110 115
110 122
110 137
110 138
111 115
111 122
111 137
111 138
112 114
112 117
112 118
112 119
112 121
112 127
112 129
112 130
112 132
112 136
113 114
113 116
113 120
113 124
113 131
113 133
114 117
114 118
114 119
114 121
114 127
114 129
114 130
114 132
114 136
115 137
116 124
117 118
117 120
117 123
117 127
117 131
117 133
118 127
118 134
118 135
118 138
119 120
119 121
119 123
119 126
119 128
119 129
119 130
119 132
119 136
120 121
120 123
120 126
120 128
120 131
120 133
121 123
121 126
121 128
121 129
121 130
121 132
121 136
122 124
122 125
122 127
122 134
122 135
122 137
122 138
123 126
123 128
123 131
123 133
124 125
124 127
124 134
124 135
124 138
125 127
125 134
125 135
125 138
126 128
126 137
127 134
127 135
127 138
129 130
129 132
129 136
130 132
130 136
131 133
132 136
134 135
134 138
135 138
137 138
0
1
2
3
4
5
6
7
8
9
10
11 12
13
14 15
16
17
18
19
20 21
22
23
24
25
26
27
28 29
30 31
32
33 34
35
36
37
38
39
40
41
42
43 44
45
46
47
48 49
50 51
52 53
54 55
56
57
58
59
60
61
62 63
64
65 66
67
68
69 70
71
72 73
74
75
76
77 78
79 80
81 82
83
84
85 86
87
88 89
90 91
92
93
94
95
96 97
98
99 100
101
102 103
104
105
106 107
108
109 110
111 112
113 114
115
116 117
118
119
120
121 122
123 124
125 126
127 128
129
130
131
132 133
134
135 136
137 138
